pair_style lj/cut/coul/long  9.0 9.0
pair_coeff 1 1 0.024 3.4
pair_coeff 1 2 0.010 3.4
pair_coeff 2 2 0.030 3.4
pair_modify shift yes
